33D32945 STP File, STP Format Version 1.0

SECTION Comment
Name    "i160-242"
Creator "Cees Duin"
Remark  "Incidence graph"
END

SECTION Graph
Nodes 160
Edges 2544
E 1 3 300
E 1 7 298
E 1 13 300
E 1 15 304
E 1 20 292
E 1 26 198
E 1 30 200
E 1 31 197
E 1 35 196
E 1 37 196
E 1 47 201
E 1 48 202
E 1 53 202
E 1 54 195
E 1 55 190
E 1 57 196
E 1 60 205
E 1 63 194
E 1 65 210
E 1 66 205
E 1 68 202
E 1 71 194
E 1 72 200
E 1 76 196
E 1 83 191
E 1 84 202
E 1 87 190
E 1 92 203
E 1 97 195
E 1 108 199
E 1 110 208
E 1 113 196
E 1 117 196
E 1 118 194
E 1 121 203
E 1 127 200
E 1 130 198
E 1 136 199
E 1 137 210
E 1 139 196
E 1 142 204
E 1 143 201
E 1 150 202
E 1 154 203
E 1 155 204
E 1 156 201
E 2 4 303
E 2 7 299
E 2 10 309
E 2 22 299
E 2 27 198
E 2 31 211
E 2 32 202
E 2 35 189
E 2 46 200
E 2 55 202
E 2 61 199
E 2 70 201
E 2 73 199
E 2 76 202
E 2 85 200
E 2 87 199
E 2 90 193
E 2 96 202
E 2 97 193
E 2 100 197
E 2 111 199
E 2 131 201
E 2 140 207
E 2 141 197
E 2 143 207
E 2 144 196
E 2 149 194
E 2 153 205
E 2 154 201
E 2 157 199
E 3 4 296
E 3 11 297
E 3 15 299
E 3 16 297
E 3 19 294
E 3 26 203
E 3 41 197
E 3 45 198
E 3 47 193
E 3 59 193
E 3 60 196
E 3 67 199
E 3 69 203
E 3 78 208
E 3 79 196
E 3 82 204
E 3 86 208
E 3 90 194
E 3 94 201
E 3 95 204
E 3 98 203
E 3 99 200
E 3 104 194
E 3 111 200
E 3 113 204
E 3 116 196
E 3 117 200
E 3 120 196
E 3 123 207
E 3 133 196
E 3 158 207
E 4 22 292
E 4 38 210
E 4 44 213
E 4 57 200
E 4 63 194
E 4 77 203
E 4 80 200
E 4 82 197
E 4 88 202
E 4 94 196
E 4 97 194
E 4 98 200
E 4 100 195
E 4 105 212
E 4 113 192
E 4 148 200
E 4 150 204
E 4 153 201
E 5 8 304
E 5 11 297
E 5 17 296
E 5 21 294
E 5 22 300
E 5 28 209
E 5 36 192
E 5 37 199
E 5 44 201
E 5 56 196
E 5 58 194
E 5 64 208
E 5 65 202
E 5 68 200
E 5 71 195
E 5 78 204
E 5 80 204
E 5 86 203
E 5 89 194
E 5 106 189
E 5 114 204
E 5 126 202
E 5 133 202
E 5 136 192
E 5 148 196
E 5 151 199
E 5 152 201
E 5 153 195
E 5 155 203
E 6 8 290
E 6 9 305
E 6 12 295
E 6 15 300
E 6 17 293
E 6 21 304
E 6 30 208
E 6 35 204
E 6 42 192
E 6 48 192
E 6 49 201
E 6 50 206
E 6 53 202
E 6 61 199
E 6 62 200
E 6 68 198
E 6 71 202
E 6 73 201
E 6 78 202
E 6 80 190
E 6 97 204
E 6 105 204
E 6 107 203
E 6 113 205
E 6 119 200
E 6 121 205
E 6 133 206
E 6 134 207
E 6 146 193
E 6 151 196
E 7 10 298
E 7 12 298
E 7 13 301
E 7 16 303
E 7 18 301
E 7 36 199
E 7 48 202
E 7 53 190
E 7 55 202
E 7 66 201
E 7 67 200
E 7 72 207
E 7 83 196
E 7 100 210
E 7 106 199
E 7 107 204
E 7 115 193
E 7 116 199
E 7 117 205
E 7 119 196
E 7 128 192
E 7 135 206
E 7 138 204
E 7 139 203
E 7 150 195
E 7 154 202
E 8 17 310
E 8 22 298
E 8 29 208
E 8 38 195
E 8 39 200
E 8 41 199
E 8 44 191
E 8 47 192
E 8 54 202
E 8 61 201
E 8 66 194
E 8 76 195
E 8 78 206
E 8 81 200
E 8 83 202
E 8 96 194
E 8 97 193
E 8 101 204
E 8 104 208
E 8 106 187
E 8 108 199
E 8 116 195
E 8 123 208
E 8 128 198
E 8 129 206
E 8 136 189
E 8 146 203
E 8 154 208
E 8 158 197
E 9 13 305
E 9 15 305
E 9 25 202
E 9 28 193
E 9 34 195
E 9 37 207
E 9 38 200
E 9 40 189
E 9 43 201
E 9 50 203
E 9 53 203
E 9 55 200
E 9 71 203
E 9 83 205
E 9 87 199
E 9 88 195
E 9 93 199
E 9 96 199
E 9 99 197
E 9 100 206
E 9 106 200
E 9 115 196
E 9 116 199
E 9 124 197
E 9 129 203
E 9 131 206
E 9 134 195
E 9 138 201
E 9 140 195
E 9 149 191
E 9 153 206
E 9 155 198
E 9 157 197
E 9 158 199
E 10 16 308
E 10 20 301
E 10 28 192
E 10 29 198
E 10 45 201
E 10 49 201
E 10 54 192
E 10 59 209
E 10 62 197
E 10 65 202
E 10 70 203
E 10 71 199
E 10 72 197
E 10 80 204
E 10 88 214
E 10 93 193
E 10 95 195
E 10 96 202
E 10 100 203
E 10 111 196
E 10 113 200
E 10 118 195
E 10 121 201
E 10 126 208
E 10 130 204
E 10 141 196
E 10 154 190
E 11 25 200
E 11 37 204
E 11 50 207
E 11 55 192
E 11 60 197
E 11 75 198
E 11 78 192
E 11 79 214
E 11 87 193
E 11 97 204
E 11 107 198
E 11 117 197
E 11 126 193
E 11 131 203
E 11 145 197
E 11 147 196
E 11 155 203
E 11 159 203
E 12 23 305
E 12 26 197
E 12 41 200
E 12 53 192
E 12 55 198
E 12 68 192
E 12 69 202
E 12 91 197
E 12 92 200
E 12 99 203
E 12 102 198
E 12 103 212
E 12 109 193
E 12 115 201
E 12 117 200
E 12 120 198
E 12 125 200
E 12 127 207
E 12 138 200
E 12 140 202
E 12 141 194
E 12 152 191
E 12 156 192
E 12 160 195
E 13 22 292
E 13 25 199
E 13 34 193
E 13 51 195
E 13 52 208
E 13 56 211
E 13 68 204
E 13 73 198
E 13 74 204
E 13 77 194
E 13 85 197
E 13 99 191
E 13 105 205
E 13 107 194
E 13 110 202
E 13 112 201
E 13 123 207
E 13 129 203
E 13 130 211
E 13 131 202
E 13 132 199
E 13 134 207
E 13 140 200
E 13 149 203
E 14 20 304
E 14 21 310
E 14 26 206
E 14 36 195
E 14 44 209
E 14 55 198
E 14 61 195
E 14 68 194
E 14 71 202
E 14 73 192
E 14 75 205
E 14 85 205
E 14 87 198
E 14 104 195
E 14 123 193
E 14 126 201
E 14 127 203
E 14 129 196
E 14 132 205
E 14 137 205
E 14 139 198
E 14 141 202
E 14 143 195
E 14 144 196
E 14 152 200
E 15 17 306
E 15 19 302
E 15 20 298
E 15 29 197
E 15 30 199
E 15 32 196
E 15 36 206
E 15 38 199
E 15 46 199
E 15 50 193
E 15 59 206
E 15 61 196
E 15 64 207
E 15 70 193
E 15 76 192
E 15 78 197
E 15 94 202
E 15 100 204
E 15 111 196
E 15 115 197
E 15 119 198
E 15 123 192
E 15 124 191
E 15 125 196
E 15 131 197
E 15 134 198
E 15 135 200
E 15 137 200
E 15 143 202
E 15 144 198
E 15 149 200
E 15 150 196
E 15 151 198
E 15 160 198
E 16 21 306
E 16 27 203
E 16 30 194
E 16 36 197
E 16 41 196
E 16 47 208
E 16 48 201
E 16 50 200
E 16 52 190
E 16 56 198
E 16 58 201
E 16 60 206
E 16 61 189
E 16 63 206
E 16 64 200
E 16 66 200
E 16 69 191
E 16 72 204
E 16 76 208
E 16 79 198
E 16 82 203
E 16 90 202
E 16 94 207
E 16 98 202
E 16 99 194
E 16 109 200
E 16 110 208
E 16 129 201
E 16 132 200
E 16 137 200
E 16 139 199
E 16 142 199
E 16 149 204
E 16 152 211
E 16 153 202
E 16 154 194
E 17 30 199
E 17 32 199
E 17 40 190
E 17 46 199
E 17 53 211
E 17 57 199
E 17 60 203
E 17 61 199
E 17 67 212
E 17 78 206
E 17 84 191
E 17 87 196
E 17 88 202
E 17 98 208
E 17 100 199
E 17 102 203
E 17 107 206
E 17 115 202
E 17 131 197
E 17 132 204
E 17 134 208
E 17 142 193
E 17 143 196
E 17 145 200
E 17 153 198
E 17 158 190
E 18 24 301
E 18 27 202
E 18 28 193
E 18 40 199
E 18 41 198
E 18 44 206
E 18 50 197
E 18 59 192
E 18 61 200
E 18 65 207
E 18 69 201
E 18 73 206
E 18 77 203
E 18 87 198
E 18 91 202
E 18 98 195
E 18 108 196
E 18 114 198
E 18 118 208
E 18 126 193
E 18 128 200
E 18 130 192
E 18 133 207
E 18 134 201
E 18 136 205
E 18 138 198
E 18 141 198
E 18 145 205
E 18 152 211
E 19 20 301
E 19 22 295
E 19 25 204
E 19 27 192
E 19 33 202
E 19 35 195
E 19 42 204
E 19 49 199
E 19 51 187
E 19 53 204
E 19 57 201
E 19 74 194
E 19 81 198
E 19 84 195
E 19 92 190
E 19 94 204
E 19 102 197
E 19 106 202
E 19 110 190
E 19 112 206
E 19 124 198
E 19 133 196
E 19 134 201
E 19 145 199
E 19 151 199
E 19 153 198
E 19 155 200
E 19 156 206
E 19 159 206
E 20 21 293
E 20 36 208
E 20 39 196
E 20 40 209
E 20 57 203
E 20 59 201
E 20 61 207
E 20 71 209
E 20 75 209
E 20 76 199
E 20 77 203
E 20 83 200
E 20 84 205
E 20 90 195
E 20 93 208
E 20 100 202
E 20 104 207
E 20 109 194
E 20 110 200
E 20 120 195
E 20 122 197
E 20 127 200
E 20 131 195
E 20 140 201
E 20 153 196
E 20 160 205
E 21 23 299
E 21 27 198
E 21 37 194
E 21 54 192
E 21 63 200
E 21 66 201
E 21 68 193
E 21 70 197
E 21 71 206
E 21 77 204
E 21 83 194
E 21 84 200
E 21 86 204
E 21 94 209
E 21 96 202
E 21 105 190
E 21 106 195
E 21 110 203
E 21 114 207
E 21 116 199
E 21 126 196
E 21 130 198
E 21 134 202
E 21 139 204
E 21 141 193
E 21 144 200
E 21 146 197
E 21 159 201
E 21 160 190
E 22 24 295
E 22 52 199
E 22 54 198
E 22 55 199
E 22 56 202
E 22 61 207
E 22 62 195
E 22 78 201
E 22 88 201
E 22 103 196
E 22 104 200
E 22 111 196
E 22 112 209
E 22 113 189
E 22 117 204
E 22 118 195
E 22 123 196
E 22 125 202
E 22 127 202
E 22 133 194
E 22 135 197
E 22 144 196
E 22 155 205
E 22 158 192
E 23 28 206
E 23 29 195
E 23 32 201
E 23 47 201
E 23 49 207
E 23 52 204
E 23 62 200
E 23 63 200
E 23 71 188
E 23 80 198
E 23 86 201
E 23 91 199
E 23 93 187
E 23 98 195
E 23 107 193
E 23 118 198
E 23 120 206
E 23 122 198
E 23 126 199
E 23 134 205
E 23 135 187
E 23 143 195
E 23 148 200
E 23 153 202
E 23 158 206
E 23 159 196
E 24 26 196
E 24 28 197
E 24 30 207
E 24 31 201
E 24 40 199
E 24 44 196
E 24 64 208
E 24 67 200
E 24 77 205
E 24 82 195
E 24 85 201
E 24 86 201
E 24 90 206
E 24 94 188
E 24 98 206
E 24 104 204
E 24 106 200
E 24 109 197
E 24 110 199
E 24 122 198
E 24 123 201
E 24 124 198
E 24 128 204
E 24 134 205
E 24 149 192
E 24 150 197
E 24 154 197
E 24 155 195
E 24 159 205
E 25 32 105
E 25 39 103
E 25 42 98
E 25 43 93
E 25 45 107
E 25 46 108
E 25 60 88
E 25 61 102
E 25 68 105
E 25 78 106
E 25 80 108
E 25 84 100
E 25 88 94
E 25 92 94
E 25 110 96
E 25 111 101
E 25 116 110
E 25 118 101
E 25 121 106
E 25 122 105
E 25 125 104
E 25 142 97
E 25 146 100
E 25 150 102
E 25 152 105
E 26 27 98
E 26 41 103
E 26 52 94
E 26 54 103
E 26 66 109
E 26 68 92
E 26 72 104
E 26 75 98
E 26 77 95
E 26 79 90
E 26 80 99
E 26 85 109
E 26 86 109
E 26 87 95
E 26 95 106
E 26 98 99
E 26 102 104
E 26 115 103
E 26 117 101
E 26 122 99
E 26 125 91
E 26 126 93
E 26 128 98
E 26 131 101
E 26 137 106
E 26 139 104
E 26 141 101
E 26 145 102
E 26 147 100
E 26 151 99
E 26 152 90
E 27 31 97
E 27 32 94
E 27 33 94
E 27 36 96
E 27 38 106
E 27 54 100
E 27 63 104
E 27 65 99
E 27 66 105
E 27 78 102
E 27 82 95
E 27 83 106
E 27 90 104
E 27 93 93
E 27 96 90
E 27 97 98
E 27 98 93
E 27 102 105
E 27 105 96
E 27 109 103
E 27 126 102
E 27 130 99
E 27 136 92
E 27 145 104
E 27 146 92
E 27 150 104
E 27 159 106
E 28 31 96
E 28 44 100
E 28 51 108
E 28 53 107
E 28 60 91
E 28 63 101
E 28 81 98
E 28 88 89
E 28 94 94
E 28 96 99
E 28 98 99
E 28 100 89
E 28 103 98
E 28 104 96
E 28 107 103
E 28 116 102
E 28 117 104
E 28 122 98
E 28 127 105
E 28 128 97
E 28 132 99
E 28 137 105
E 28 148 102
E 28 149 97
E 28 151 93
E 28 155 101
E 28 160 99
E 29 37 101
E 29 50 102
E 29 52 98
E 29 63 97
E 29 66 104
E 29 79 103
E 29 82 99
E 29 92 92
E 29 100 103
E 29 103 97
E 29 108 99
E 29 113 94
E 29 114 92
E 29 115 96
E 29 118 96
E 29 131 97
E 29 135 95
E 29 147 94
E 29 150 96
E 29 152 104
E 29 153 91
E 29 160 98
E 30 35 104
E 30 37 96
E 30 45 98
E 30 47 91
E 30 49 102
E 30 50 100
E 30 52 104
E 30 54 101
E 30 60 103
E 30 62 105
E 30 66 101
E 30 68 94
E 30 77 91
E 30 81 101
E 30 97 103
E 30 99 101
E 30 101 106
E 30 102 98
E 30 105 100
E 30 112 105
E 30 113 106
E 30 123 90
E 30 125 100
E 30 130 100
E 30 137 103
E 30 139 105
E 30 152 98
E 30 154 101
E 31 32 91
E 31 38 90
E 31 41 99
E 31 44 99
E 31 49 105
E 31 54 104
E 31 60 103
E 31 65 103
E 31 67 101
E 31 76 95
E 31 77 103
E 31 81 98
E 31 83 97
E 31 88 95
E 31 91 96
E 31 93 93
E 31 114 96
E 31 116 104
E 31 118 101
E 31 121 90
E 31 128 101
E 31 131 103
E 31 132 94
E 31 133 101
E 31 139 99
E 31 146 102
E 31 148 93
E 31 156 93
E 32 35 91
E 32 36 97
E 32 45 94
E 32 47 99
E 32 50 101
E 32 55 92
E 32 58 100
E 32 59 103
E 32 62 97
E 32 76 102
E 32 78 100
E 32 81 102
E 32 88 102
E 32 89 98
E 32 103 98
E 32 104 99
E 32 106 92
E 32 107 95
E 32 108 98
E 32 109 107
E 32 110 105
E 32 114 100
E 32 117 108
E 32 124 97
E 32 126 102
E 32 132 101
E 32 133 102
E 32 138 114
E 32 140 97
E 32 144 89
E 32 151 100
E 32 152 92
E 32 153 97
E 32 154 107
E 33 36 107
E 33 42 101
E 33 43 98
E 33 45 100
E 33 50 96
E 33 51 101
E 33 53 96
E 33 57 98
E 33 59 98
E 33 66 95
E 33 72 104
E 33 78 102
E 33 80 103
E 33 92 98
E 33 98 97
E 33 110 95
E 33 113 103
E 33 120 103
E 33 122 105
E 33 123 95
E 33 132 101
E 33 146 96
E 33 147 100
E 33 148 105
E 33 159 97
E 34 37 97
E 34 43 105
E 34 44 89
E 34 50 95
E 34 58 104
E 34 63 92
E 34 67 98
E 34 81 103
E 34 85 102
E 34 87 98
E 34 92 99
E 34 101 93
E 34 105 100
E 34 108 98
E 34 109 107
E 34 112 104
E 34 113 97
E 34 117 92
E 34 118 94
E 34 121 104
E 34 123 97
E 34 135 101
E 34 136 88
E 34 140 106
E 34 145 98
E 34 151 110
E 35 36 98
E 35 42 96
E 35 43 96
E 35 45 98
E 35 57 106
E 35 64 95
E 35 73 101
E 35 74 96
E 35 80 95
E 35 83 105
E 35 93 105
E 35 94 104
E 35 112 97
E 35 113 98
E 35 122 94
E 35 138 96
E 35 144 99
E 35 146 96
E 35 155 103
E 36 39 93
E 36 40 97
E 36 44 98
E 36 48 100
E 36 55 107
E 36 57 99
E 36 62 101
E 36 63 94
E 36 65 98
E 36 66 95
E 36 69 99
E 36 70 102
E 36 72 99
E 36 82 104
E 36 92 105
E 36 96 103
E 36 99 106
E 36 101 104
E 36 102 103
E 36 103 100
E 36 108 97
E 36 109 87
E 36 112 109
E 36 124 101
E 36 125 99
E 36 128 100
E 36 129 94
E 36 136 99
E 36 140 100
E 36 142 96
E 36 148 100
E 36 151 110
E 36 153 95
E 36 158 105
E 37 42 89
E 37 53 102
E 37 56 92
E 37 70 108
E 37 71 101
E 37 72 102
E 37 82 97
E 37 84 102
E 37 86 116
E 37 94 95
E 37 99 103
E 37 118 100
E 37 120 102
E 37 135 105
E 37 136 99
E 37 142 109
E 37 144 93
E 37 156 95
E 37 157 108
E 38 39 105
E 38 40 95
E 38 41 98
E 38 58 95
E 38 73 100
E 38 76 108
E 38 77 102
E 38 83 100
E 38 92 103
E 38 100 99
E 38 105 96
E 38 108 117
E 38 111 102
E 38 116 91
E 38 121 91
E 38 122 96
E 38 123 100
E 38 128 98
E 38 134 104
E 38 136 90
E 38 137 92
E 38 139 107
E 38 148 100
E 38 151 94
E 38 152 102
E 38 155 99
E 38 156 89
E 38 157 100
E 39 41 108
E 39 43 101
E 39 46 107
E 39 47 97
E 39 50 96
E 39 56 99
E 39 58 98
E 39 61 93
E 39 67 102
E 39 79 103
E 39 80 103
E 39 87 98
E 39 98 104
E 39 103 93
E 39 108 104
E 39 112 100
E 39 113 96
E 39 123 102
E 39 124 93
E 39 130 102
E 39 132 102
E 39 136 104
E 39 146 93
E 39 160 110
E 40 52 102
E 40 53 102
E 40 56 95
E 40 60 94
E 40 61 92
E 40 63 100
E 40 73 92
E 40 75 105
E 40 77 92
E 40 79 98
E 40 81 103
E 40 84 102
E 40 85 102
E 40 103 100
E 40 121 107
E 40 125 94
E 40 130 104
E 40 135 97
E 40 139 98
E 40 146 91
E 40 150 99
E 41 44 104
E 41 49 97
E 41 58 100
E 41 67 96
E 41 73 98
E 41 76 90
E 41 77 102
E 41 80 102
E 41 87 99
E 41 89 103
E 41 94 97
E 41 96 98
E 41 104 97
E 41 105 86
E 41 108 101
E 41 111 99
E 41 128 95
E 41 133 94
E 41 140 105
E 41 142 102
E 41 143 99
E 41 153 103
E 41 154 101
E 41 159 98
E 42 43 93
E 42 46 103
E 42 48 99
E 42 53 109
E 42 58 95
E 42 60 93
E 42 74 100
E 42 78 104
E 42 79 101
E 42 83 101
E 42 86 107
E 42 90 105
E 42 91 95
E 42 92 90
E 42 103 105
E 42 105 105
E 42 115 91
E 42 124 106
E 42 127 107
E 42 131 101
E 42 133 95
E 42 137 100
E 42 141 102
E 42 145 95
E 42 148 103
E 42 151 104
E 42 158 103
E 42 159 94
E 42 160 102
E 43 44 101
E 43 50 103
E 43 58 93
E 43 61 103
E 43 62 100
E 43 65 98
E 43 68 100
E 43 70 102
E 43 71 111
E 43 75 103
E 43 77 105
E 43 87 92
E 43 89 90
E 43 93 101
E 43 94 91
E 43 95 106
E 43 104 102
E 43 107 98
E 43 117 101
E 43 120 101
E 43 125 106
E 43 138 98
E 43 140 95
E 43 141 100
E 43 142 103
E 43 144 98
E 43 148 101
E 43 151 95
E 44 46 90
E 44 50 106
E 44 56 101
E 44 59 98
E 44 61 92
E 44 63 99
E 44 66 94
E 44 67 95
E 44 70 103
E 44 79 97
E 44 81 102
E 44 84 93
E 44 86 91
E 44 93 97
E 44 94 96
E 44 113 94
E 44 115 104
E 44 123 98
E 44 124 104
E 44 125 100
E 44 130 100
E 44 151 104
E 44 153 99
E 44 156 99
E 45 51 102
E 45 61 98
E 45 65 104
E 45 73 97
E 45 74 99
E 45 76 96
E 45 77 107
E 45 78 101
E 45 83 85
E 45 96 101
E 45 100 99
E 45 102 95
E 45 105 107
E 45 109 94
E 45 110 100
E 45 114 112
E 45 123 96
E 45 124 98
E 45 126 100
E 45 127 102
E 45 128 108
E 45 134 101
E 45 139 106
E 45 148 103
E 45 149 101
E 45 152 94
E 45 155 96
E 46 58 93
E 46 67 99
E 46 78 103
E 46 82 92
E 46 83 97
E 46 84 96
E 46 96 99
E 46 98 104
E 46 99 96
E 46 100 98
E 46 101 101
E 46 102 101
E 46 104 100
E 46 114 95
E 46 117 95
E 46 121 79
E 46 140 103
E 46 142 100
E 46 143 103
E 46 146 98
E 46 153 97
E 46 155 104
E 47 48 90
E 47 53 104
E 47 55 97
E 47 61 97
E 47 67 102
E 47 68 104
E 47 73 93
E 47 75 94
E 47 81 104
E 47 82 108
E 47 96 101
E 47 108 99
E 47 115 100
E 47 120 96
E 47 123 104
E 47 124 106
E 47 130 106
E 47 133 100
E 47 134 104
E 47 139 103
E 47 141 96
E 47 147 102
E 47 149 97
E 47 154 96
E 47 159 101
E 48 52 108
E 48 53 103
E 48 54 102
E 48 57 92
E 48 59 108
E 48 70 89
E 48 72 100
E 48 79 101
E 48 83 103
E 48 85 100
E 48 86 105
E 48 88 102
E 48 91 106
E 48 106 97
E 48 111 99
E 48 113 108
E 48 120 100
E 48 122 101
E 48 126 101
E 48 129 90
E 48 134 96
E 48 138 91
E 48 140 106
E 48 145 104
E 48 155 100
E 49 52 96
E 49 57 112
E 49 73 99
E 49 74 102
E 49 77 96
E 49 79 85
E 49 82 99
E 49 84 101
E 49 86 105
E 49 89 102
E 49 94 108
E 49 95 91
E 49 96 90
E 49 103 97
E 49 105 85
E 49 111 97
E 49 124 92
E 49 131 93
E 49 134 99
E 49 137 97
E 49 139 107
E 49 142 98
E 49 145 100
E 49 153 101
E 49 158 100
E 49 160 96
E 50 51 103
E 50 61 97
E 50 65 85
E 50 67 105
E 50 73 109
E 50 74 100
E 50 82 110
E 50 85 103
E 50 96 102
E 50 112 96
E 50 113 104
E 50 116 96
E 50 123 98
E 50 127 98
E 50 132 97
E 50 136 101
E 50 137 106
E 50 144 106
E 50 145 100
E 51 52 101
E 51 53 102
E 51 54 101
E 51 56 97
E 51 62 104
E 51 64 99
E 51 65 98
E 51 68 93
E 51 70 97
E 51 76 104
E 51 77 103
E 51 82 101
E 51 92 96
E 51 93 99
E 51 99 94
E 51 101 100
E 51 112 90
E 51 114 91
E 51 130 95
E 51 136 91
E 51 138 103
E 51 140 104
E 51 141 104
E 51 143 92
E 51 151 100
E 51 153 97
E 52 53 92
E 52 67 100
E 52 70 99
E 52 88 95
E 52 95 107
E 52 99 91
E 52 101 96
E 52 106 110
E 52 110 102
E 52 118 97
E 52 123 101
E 52 128 95
E 52 130 102
E 52 131 97
E 52 135 92
E 52 142 100
E 52 155 103
E 53 58 95
E 53 59 104
E 53 61 110
E 53 63 102
E 53 69 96
E 53 72 103
E 53 73 112
E 53 81 100
E 53 93 96
E 53 104 103
E 53 108 108
E 53 113 104
E 53 119 98
E 53 124 95
E 53 129 99
E 53 135 99
E 53 143 97
E 53 151 106
E 53 155 95
E 53 160 104
E 54 66 105
E 54 69 100
E 54 75 94
E 54 83 99
E 54 97 105
E 54 99 99
E 54 101 98
E 54 111 92
E 54 116 103
E 54 125 94
E 54 126 115
E 54 127 101
E 54 128 99
E 54 129 106
E 54 130 99
E 54 136 93
E 54 138 108
E 54 142 103
E 54 148 106
E 54 157 103
E 54 158 108
E 55 62 98
E 55 65 104
E 55 74 97
E 55 77 97
E 55 79 97
E 55 80 93
E 55 90 97
E 55 91 98
E 55 96 95
E 55 108 95
E 55 111 107
E 55 119 98
E 55 121 101
E 55 126 109
E 55 128 101
E 55 131 102
E 55 141 102
E 55 150 94
E 56 75 100
E 56 79 109
E 56 80 95
E 56 84 105
E 56 85 99
E 56 88 98
E 56 89 105
E 56 91 102
E 56 97 87
E 56 106 100
E 56 108 109
E 56 111 110
E 56 113 103
E 56 115 102
E 56 116 101
E 56 133 106
E 56 137 106
E 56 138 104
E 56 151 95
E 56 153 95
E 56 155 102
E 56 159 110
E 57 60 94
E 57 63 103
E 57 64 103
E 57 71 101
E 57 80 100
E 57 88 100
E 57 89 94
E 57 96 98
E 57 97 101
E 57 99 103
E 57 104 95
E 57 105 103
E 57 108 97
E 57 111 102
E 57 116 99
E 57 120 98
E 57 126 104
E 57 135 101
E 57 142 102
E 57 147 100
E 57 148 105
E 57 158 96
E 57 159 102
E 58 61 102
E 58 72 97
E 58 84 93
E 58 90 99
E 58 97 93
E 58 99 101
E 58 101 98
E 58 114 102
E 58 118 87
E 58 124 102
E 58 125 98
E 58 127 99
E 58 133 103
E 58 138 88
E 58 139 102
E 58 140 87
E 58 150 92
E 58 157 97
E 58 159 103
E 59 60 94
E 59 71 97
E 59 73 101
E 59 74 97
E 59 79 101
E 59 80 94
E 59 82 104
E 59 86 102
E 59 87 87
E 59 94 104
E 59 97 97
E 59 103 102
E 59 104 102
E 59 107 99
E 59 118 106
E 59 121 112
E 59 125 96
E 59 127 101
E 59 135 103
E 59 146 99
E 59 147 102
E 59 148 103
E 60 61 95
E 60 76 98
E 60 78 100
E 60 80 101
E 60 81 94
E 60 82 92
E 60 91 112
E 60 94 103
E 60 97 96
E 60 106 98
E 60 109 95
E 60 110 106
E 60 113 90
E 60 115 105
E 60 117 96
E 60 118 98
E 60 120 106
E 60 122 96
E 60 125 103
E 60 127 93
E 60 134 101
E 60 140 100
E 60 149 104
E 60 153 96
E 60 156 105
E 61 62 103
E 61 63 101
E 61 70 99
E 61 83 99
E 61 92 110
E 61 96 99
E 61 101 102
E 61 103 97
E 61 109 105
E 61 111 98
E 61 112 109
E 61 118 100
E 61 120 103
E 61 129 100
E 61 132 100
E 61 134 93
E 61 135 98
E 61 140 106
E 61 154 100
E 61 157 103
E 61 160 100
E 62 68 100
E 62 75 106
E 62 76 97
E 62 78 104
E 62 80 107
E 62 84 105
E 62 86 94
E 62 88 102
E 62 89 103
E 62 90 105
E 62 93 93
E 62 95 98
E 62 105 114
E 62 113 106
E 62 130 108
E 62 133 103
E 62 134 95
E 62 136 94
E 62 141 94
E 62 144 105
E 62 149 97
E 62 151 109
E 62 158 107
E 62 159 99
E 63 82 102
E 63 85 96
E 63 86 94
E 63 93 92
E 63 107 99
E 63 108 91
E 63 111 97
E 63 112 89
E 63 113 97
E 63 115 102
E 63 118 109
E 63 121 92
E 63 123 94
E 63 128 97
E 63 129 98
E 63 137 103
E 63 145 102
E 63 152 105
E 63 153 101
E 64 65 109
E 64 77 104
E 64 80 101
E 64 83 100
E 64 87 93
E 64 93 102
E 64 95 101
E 64 105 97
E 64 108 99
E 64 109 99
E 64 113 102
E 64 114 92
E 64 115 100
E 64 121 97
E 64 123 96
E 64 129 104
E 64 141 88
E 64 147 99
E 64 148 104
E 64 150 103
E 64 155 102
E 64 159 97
E 65 67 104
E 65 74 99
E 65 75 107
E 65 77 103
E 65 78 101
E 65 84 95
E 65 86 105
E 65 96 105
E 65 104 99
E 65 119 91
E 65 124 106
E 65 126 100
E 65 130 100
E 65 134 96
E 65 135 98
E 65 140 101
E 65 143 96
E 65 148 103
E 65 151 96
E 65 154 98
E 65 156 102
E 65 157 98
E 66 77 102
E 66 82 101
E 66 85 97
E 66 91 94
E 66 110 108
E 66 117 90
E 66 118 97
E 66 120 94
E 66 121 103
E 66 123 97
E 66 126 93
E 66 130 97
E 66 131 94
E 66 132 103
E 66 133 98
E 66 135 105
E 66 140 94
E 66 153 95
E 66 159 96
E 67 68 101
E 67 74 97
E 67 77 94
E 67 78 99
E 67 85 100
E 67 88 111
E 67 103 106
E 67 106 97
E 67 111 101
E 67 114 104
E 67 128 102
E 67 140 101
E 67 148 99
E 67 150 97
E 67 155 102
E 68 81 98
E 68 83 101
E 68 88 105
E 68 92 99
E 68 94 95
E 68 95 102
E 68 120 99
E 68 125 103
E 68 126 99
E 68 131 105
E 68 132 90
E 68 139 99
E 68 140 101
E 68 143 104
E 68 145 109
E 68 156 104
E 68 158 106
E 69 71 99
E 69 74 97
E 69 79 104
E 69 81 96
E 69 84 102
E 69 91 94
E 69 97 103
E 69 105 102
E 69 108 98
E 69 120 104
E 69 121 104
E 69 132 100
E 69 135 101
E 69 138 95
E 69 145 96
E 69 146 106
E 69 151 101
E 69 154 102
E 69 159 96
E 70 79 102
E 70 83 103
E 70 90 91
E 70 92 104
E 70 96 97
E 70 97 97
E 70 105 98
E 70 112 99
E 70 114 107
E 70 115 98
E 70 124 103
E 70 125 104
E 70 126 95
E 70 136 100
E 70 139 89
E 70 144 102
E 70 145 99
E 70 147 100
E 70 149 106
E 70 151 90
E 70 152 98
E 71 73 101
E 71 84 96
E 71 85 100
E 71 90 94
E 71 91 98
E 71 94 105
E 71 102 104
E 71 106 100
E 71 114 101
E 71 115 99
E 71 126 109
E 71 132 100
E 71 135 100
E 71 138 89
E 71 143 110
E 71 147 104
E 71 150 95
E 71 156 100
E 71 157 107
E 72 82 101
E 72 83 95
E 72 89 98
E 72 90 91
E 72 102 92
E 72 104 94
E 72 111 102
E 72 113 107
E 72 117 96
E 72 131 100
E 72 140 103
E 72 143 97
E 72 152 97
E 72 157 95
E 73 75 98
E 73 78 97
E 73 80 101
E 73 92 109
E 73 99 98
E 73 109 103
E 73 111 96
E 73 112 102
E 73 115 101
E 73 117 100
E 73 118 113
E 73 133 101
E 73 137 90
E 73 138 99
E 73 140 92
E 73 155 98
E 73 157 104
E 73 158 98
E 74 79 94
E 74 82 95
E 74 89 97
E 74 91 99
E 74 93 105
E 74 100 89
E 74 101 102
E 74 105 106
E 74 107 105
E 74 113 100
E 74 114 108
E 74 117 94
E 74 132 100
E 74 134 99
E 74 135 98
E 74 137 100
E 74 138 86
E 74 142 107
E 74 146 94
E 74 155 100
E 74 156 97
E 74 157 97
E 75 83 100
E 75 84 87
E 75 89 102
E 75 94 102
E 75 99 97
E 75 100 95
E 75 109 101
E 75 112 102
E 75 116 88
E 75 121 94
E 75 138 106
E 75 139 105
E 75 146 110
E 75 150 103
E 75 155 100
E 76 80 99
E 76 83 96
E 76 84 100
E 76 88 100
E 76 95 100
E 76 97 95
E 76 99 105
E 76 103 101
E 76 108 96
E 76 111 92
E 76 117 117
E 76 136 96
E 76 140 104
E 76 143 97
E 76 151 93
E 76 152 99
E 76 157 95
E 77 84 94
E 77 85 101
E 77 90 98
E 77 91 107
E 77 101 98
E 77 102 98
E 77 108 111
E 77 109 98
E 77 113 104
E 77 120 104
E 77 121 99
E 77 139 95
E 77 143 88
E 77 147 92
E 77 149 87
E 77 150 100
E 77 151 105
E 77 156 98
E 77 157 101
E 78 81 105
E 78 85 108
E 78 93 88
E 78 106 104
E 78 109 97
E 78 110 100
E 78 113 93
E 78 116 108
E 78 123 99
E 78 125 110
E 78 143 94
E 78 146 93
E 78 159 106
E 79 81 103
E 79 88 99
E 79 95 103
E 79 105 113
E 79 107 101
E 79 112 99
E 79 116 96
E 79 118 103
E 79 125 107
E 79 128 99
E 79 135 103
E 79 145 103
E 79 146 99
E 79 148 105
E 79 153 104
E 80 81 104
E 80 82 103
E 80 83 103
E 80 114 102
E 80 118 96
E 80 137 91
E 80 140 105
E 80 142 96
E 80 148 98
E 80 151 100
E 80 159 103
E 81 83 104
E 81 85 94
E 81 96 96
E 81 98 101
E 81 100 91
E 81 101 105
E 81 103 108
E 81 109 98
E 81 116 111
E 81 126 101
E 81 128 97
E 81 131 95
E 81 134 108
E 81 148 95
E 81 150 96
E 81 158 86
E 82 91 100
E 82 92 98
E 82 96 96
E 82 99 105
E 82 117 93
E 82 123 99
E 82 126 95
E 82 128 115
E 82 130 109
E 82 138 97
E 82 141 92
E 82 145 93
E 82 146 96
E 82 150 103
E 82 153 106
E 82 158 97
E 82 160 94
E 83 84 102
E 83 86 109
E 83 92 92
E 83 95 99
E 83 96 98
E 83 101 96
E 83 102 101
E 83 104 109
E 83 114 107
E 83 119 100
E 83 120 100
E 83 125 103
E 83 130 100
E 83 139 107
E 83 140 97
E 83 142 101
E 83 145 99
E 83 147 92
E 83 149 96
E 83 157 114
E 84 99 113
E 84 116 98
E 84 134 101
E 84 137 107
E 84 140 103
E 84 142 94
E 84 149 95
E 84 151 99
E 84 152 90
E 84 155 98
E 85 87 102
E 85 91 104
E 85 94 103
E 85 124 95
E 85 133 99
E 85 138 104
E 85 139 99
E 85 146 105
E 85 150 97
E 85 156 104
E 85 158 94
E 85 159 101
E 86 96 98
E 86 105 93
E 86 106 108
E 86 110 91
E 86 120 100
E 86 121 103
E 86 123 96
E 86 132 101
E 86 134 107
E 86 140 94
E 86 141 106
E 86 142 101
E 86 148 103
E 86 150 92
E 86 156 106
E 87 95 104
E 87 96 98
E 87 98 95
E 87 113 89
E 87 115 102
E 87 120 100
E 87 123 96
E 87 127 110
E 87 133 109
E 87 150 102
E 87 153 87
E 87 159 96
E 88 90 101
E 88 92 101
E 88 98 107
E 88 101 97
E 88 106 90
E 88 112 103
E 88 117 92
E 88 119 99
E 88 128 99
E 88 131 102
E 88 138 93
E 88 143 102
E 88 153 106
E 89 94 102
E 89 95 95
E 89 98 105
E 89 112 106
E 89 114 96
E 89 118 109
E 89 121 104
E 89 122 93
E 89 123 98
E 89 126 97
E 89 131 102
E 89 150 96
E 89 152 90
E 89 153 107
E 89 159 94
E 89 160 96
E 90 94 96
E 90 102 101
E 90 106 102
E 90 108 95
E 90 111 94
E 90 116 89
E 90 122 95
E 90 125 101
E 90 130 97
E 90 132 100
E 90 135 99
E 90 137 95
E 90 139 97
E 90 145 101
E 90 146 96
E 90 147 86
E 90 150 92
E 90 153 94
E 90 156 103
E 91 92 111
E 91 94 93
E 91 96 95
E 91 101 98
E 91 105 99
E 91 113 103
E 91 115 101
E 91 118 100
E 91 122 94
E 91 124 100
E 91 142 103
E 91 146 102
E 91 160 99
E 92 100 100
E 92 104 109
E 92 109 95
E 92 118 105
E 92 120 96
E 92 126 99
E 92 131 104
E 92 135 106
E 92 136 92
E 92 142 98
E 92 144 97
E 92 149 108
E 92 153 102
E 92 154 104
E 92 157 95
E 92 160 101
E 93 97 101
E 93 121 93
E 93 139 97
E 93 143 104
E 93 153 97
E 94 97 94
E 94 99 98
E 94 101 97
E 94 103 105
E 94 108 95
E 94 119 101
E 94 121 100
E 94 129 97
E 94 132 98
E 94 137 109
E 94 146 104
E 94 153 92
E 94 158 94
E 95 100 107
E 95 101 91
E 95 112 99
E 95 132 94
E 95 133 93
E 95 139 92
E 95 142 95
E 95 144 99
E 95 159 99
E 96 99 105
E 96 103 101
E 96 123 104
E 96 127 93
E 96 131 110
E 96 143 106
E 96 146 104
E 96 151 95
E 96 153 92
E 96 157 103
E 97 98 101
E 97 100 104
E 97 106 97
E 97 117 93
E 97 119 102
E 97 120 99
E 97 122 106
E 97 148 93
E 97 150 103
E 98 106 100
E 98 118 101
E 98 125 98
E 98 128 97
E 98 129 100
E 98 136 101
E 98 138 107
E 98 140 107
E 98 146 102
E 98 153 95
E 98 155 95
E 99 100 107
E 99 108 91
E 99 111 102
E 99 113 102
E 99 114 96
E 99 118 102
E 99 132 93
E 99 135 98
E 99 141 95
E 99 142 91
E 99 143 95
E 99 144 105
E 99 151 98
E 99 154 102
E 99 159 102
E 100 105 97
E 100 108 97
E 100 127 91
E 100 128 98
E 100 136 96
E 100 139 105
E 100 143 95
E 100 149 100
E 100 151 101
E 100 153 92
E 100 154 93
E 100 155 96
E 100 156 93
E 100 159 105
E 100 160 106
E 101 103 105
E 101 111 96
E 101 112 101
E 101 115 98
E 101 120 104
E 101 123 95
E 101 126 103
E 101 134 105
E 101 149 98
E 101 154 104
E 101 155 101
E 101 156 90
E 101 160 95
E 102 103 103
E 102 109 97
E 102 115 88
E 102 116 106
E 102 117 101
E 102 122 103
E 102 134 101
E 102 140 95
E 102 142 90
E 102 156 95
E 103 106 100
E 103 114 100
E 103 120 102
E 103 121 102
E 103 125 96
E 103 130 97
E 103 132 100
E 103 137 103
E 103 138 101
E 103 144 103
E 103 146 106
E 103 147 95
E 103 157 97
E 103 160 88
E 104 107 99
E 104 108 94
E 104 109 96
E 104 118 101
E 104 126 99
E 104 128 94
E 104 135 99
E 104 141 99
E 104 148 101
E 104 156 96
E 104 157 103
E 105 110 100
E 105 115 92
E 105 116 106
E 105 120 98
E 105 127 98
E 105 138 99
E 105 148 107
E 105 149 92
E 105 151 98
E 105 156 92
E 106 113 94
E 106 116 101
E 106 124 100
E 106 125 97
E 106 129 104
E 106 132 99
E 106 134 103
E 106 136 100
E 106 142 102
E 106 155 100
E 107 112 103
E 107 115 100
E 107 117 91
E 107 121 98
E 107 122 94
E 107 131 107
E 107 134 101
E 107 140 95
E 107 146 102
E 107 151 106
E 107 160 101
E 108 113 101
E 108 116 103
E 108 118 105
E 108 127 112
E 108 128 96
E 108 136 100
E 108 145 93
E 108 148 103
E 108 158 98
E 108 160 102
E 109 115 106
E 109 120 101
E 109 121 97
E 109 124 99
E 109 127 106
E 109 140 100
E 109 141 101
E 109 145 101
E 109 148 95
E 109 151 107
E 109 155 94
E 109 159 93
E 110 115 105
E 110 120 96
E 110 122 103
E 110 124 103
E 110 130 99
E 110 137 96
E 110 140 97
E 110 141 102
E 110 144 97
E 110 150 98
E 110 153 113
E 110 159 107
E 111 119 100
E 111 120 108
E 111 123 103
E 111 124 113
E 111 135 107
E 111 140 93
E 111 145 93
E 111 153 104
E 111 155 101
E 112 115 100
E 112 129 101
E 112 136 103
E 112 139 99
E 112 141 93
E 112 150 103
E 112 151 99
E 112 152 94
E 112 153 105
E 112 160 98
E 113 118 98
E 113 135 93
E 113 140 98
E 113 146 104
E 113 151 105
E 113 155 99
E 113 159 110
E 114 121 106
E 114 122 108
E 114 131 98
E 114 136 108
E 114 147 103
E 114 153 95
E 114 155 96
E 114 158 100
E 115 117 105
E 115 120 91
E 115 122 101
E 115 126 93
E 115 131 101
E 115 136 97
E 115 138 103
E 115 148 100
E 116 121 86
E 116 124 97
E 116 131 98
E 116 133 99
E 116 137 101
E 116 142 92
E 116 143 96
E 116 144 103
E 116 145 98
E 116 146 105
E 116 153 93
E 116 154 93
E 116 156 99
E 116 157 104
E 116 158 95
E 116 160 100
E 117 121 94
E 117 124 94
E 117 130 103
E 117 136 109
E 117 142 99
E 117 143 99
E 117 152 110
E 117 157 99
E 118 122 101
E 118 126 96
E 118 129 99
E 118 130 106
E 118 140 95
E 119 122 100
E 119 123 96
E 119 124 106
E 119 131 96
E 119 133 96
E 119 139 107
E 119 143 105
E 119 147 97
E 119 149 104
E 119 160 104
E 120 121 100
E 120 122 93
E 120 123 95
E 120 134 99
E 120 136 94
E 120 139 103
E 120 154 95
E 120 155 106
E 120 156 105
E 120 157 108
E 120 158 97
E 121 124 99
E 121 130 97
E 121 132 100
E 121 135 96
E 121 138 97
E 121 144 103
E 121 150 106
E 121 151 97
E 121 152 106
E 121 153 100
E 121 154 92
E 121 159 93
E 122 125 98
E 122 126 95
E 122 131 94
E 122 133 106
E 122 134 100
E 122 138 95
E 122 141 101
E 122 142 97
E 122 152 96
E 123 128 98
E 123 132 109
E 123 135 92
E 123 136 93
E 123 143 100
E 123 145 100
E 123 147 101
E 123 150 105
E 123 159 105
E 124 125 104
E 124 126 95
E 124 129 93
E 124 153 90
E 124 159 94
E 124 160 90
E 125 138 100
E 125 139 104
E 125 140 104
E 125 141 98
E 125 142 99
E 125 143 105
E 125 152 105
E 126 131 100
E 126 141 101
E 126 144 106
E 126 148 101
E 126 152 100
E 127 131 93
E 127 133 102
E 127 137 98
E 127 138 103
E 127 143 102
E 127 151 98
E 127 153 105
E 128 135 101
E 128 142 105
E 128 145 109
E 128 146 101
E 128 154 110
E 128 155 99
E 128 158 107
E 129 142 100
E 129 143 108
E 129 144 109
E 129 154 92
E 129 158 97
E 130 131 96
E 130 132 99
E 130 138 104
E 130 147 100
E 130 157 95
E 131 135 98
E 131 140 109
E 131 147 100
E 131 148 107
E 131 155 101
E 131 157 100
E 132 134 96
E 132 141 102
E 132 142 97
E 132 153 107
E 133 154 105
E 133 158 97
E 134 138 104
E 134 156 103
E 135 136 96
E 135 147 106
E 135 148 95
E 135 149 95
E 135 150 106
E 135 153 99
E 136 141 104
E 136 143 104
E 136 146 106
E 137 141 100
E 137 147 109
E 137 149 97
E 137 152 98
E 137 156 95
E 137 157 98
E 138 139 102
E 138 149 97
E 138 155 109
E 138 159 95
E 139 144 105
E 139 147 97
E 139 149 102
E 139 152 104
E 139 153 105
E 139 158 96
E 140 145 95
E 140 148 101
E 140 152 102
E 140 156 100
E 141 145 91
E 141 147 95
E 141 150 91
E 141 154 99
E 142 154 93
E 142 156 99
E 143 148 100
E 143 155 91
E 143 159 96
E 145 146 99
E 145 147 107
E 145 148 99
E 145 154 94
E 145 157 93
E 145 160 96
E 146 156 103
E 146 157 97
E 146 159 103
E 147 154 102
E 148 150 100
E 148 154 99
E 148 157 92
E 148 160 101
E 149 151 96
E 149 154 92
E 150 155 98
E 150 158 105
E 151 155 104
E 151 157 95
E 152 159 98
E 153 157 103
E 153 158 102
E 154 156 95
E 154 157 99
E 155 159 97
E 155 160 102
E 156 158 90
END

SECTION Terminals
Terminals 24
T 1
T 2
T 3
T 4
T 5
T 6
T 7
T 8
T 9
T 10
T 11
T 12
T 13
T 14
T 15
T 16
T 17
T 18
T 19
T 20
T 21
T 22
T 23
T 24
END

EOF
